data/solutions/recovery/wellformed/intermediate/binding/wellformed_intermediate_instance73/46.sol
Elapsed time: 0.06
Upper bound: 4590.0
Planning weighted value: 226180468.0
C[0]=4590.0
C[1]=4538.0
C[2]=4448.0
C[3]=4445.0
C[4]=4318.0
C[5]=4126.0
C[6]=4105.0
C[7]=4087.0
C[8]=3435.0
C[9]=3100.0
C[10]=2978.0
C[11]=2906.0
C[12]=2614.0
C[13]=2542.0
C[14]=2330.0
C[15]=0.0
y[0]=0
y[1]=9
y[2]=2
y[3]=0
y[4]=10
y[5]=1
y[6]=13
y[7]=0
y[8]=7
y[9]=6
y[10]=1
y[11]=7
y[12]=4
y[13]=2
y[14]=9
y[15]=14
y[16]=13
y[17]=13
y[18]=10
y[19]=5
y[20]=6
y[21]=8
y[22]=0
y[23]=10
y[24]=12
y[25]=13
y[26]=0
y[27]=12
y[28]=4
y[29]=11
y[30]=11
y[31]=0
y[32]=3
y[33]=13
y[34]=9
y[35]=5
y[36]=11
y[37]=13
y[38]=13
y[39]=13
y[40]=3
y[41]=7
y[42]=13
y[43]=14
y[44]=11
y[45]=6
y[46]=1
y[47]=13
y[48]=13
y[49]=11
y[50]=10
y[51]=13
y[52]=14
y[53]=1
y[54]=5
y[55]=4
y[56]=2
y[57]=10
y[58]=13
y[59]=13
y[60]=13
y[61]=7
y[62]=2
y[63]=0
y[64]=12
y[65]=5
y[66]=5
y[67]=8
y[68]=13
y[69]=4
y[70]=3
y[71]=12
y[72]=7
y[73]=2
y[74]=9
y[75]=2
y[76]=7
y[77]=1
y[78]=13
y[79]=2
y[80]=14
y[81]=2
y[82]=13
y[83]=6
y[84]=12
y[85]=6
y[86]=8
y[87]=1
y[88]=2
y[89]=4
y[90]=3
y[91]=13
y[92]=8
y[93]=12
y[94]=13
y[95]=5
y[96]=3
y[97]=7
y[98]=0
y[99]=9
y[100]=4
y[101]=6
y[102]=3
y[103]=7
y[104]=5
y[105]=1
y[106]=8
y[107]=4
