data/solutions/recovery/wellformed/intermediate/binding/wellformed_intermediate_instance73/46.log

Log started (V12.6.3.0) Fri Apr 20 17:50:28 2018

New value for default parallel thread count: 1

Problem '/tmp/tmpYpLtZr.pyomo.lp' read.
Read time = 0.03 sec. (2.12 ticks)

Problem name         : /tmp/tmpYpLtZr.pyomo.lp
Objective sense      : Minimize
Variables            :    1746  [Nneg: 1,  Binary: 1728,  General Integer: 17]
Objective nonzeros   :       1
Linear constraints   :     250  [Less: 124,  Equal: 126]
  Nonzeros           :  154177
  RHS nonzeros       :     109

Variables            : Min LB: 0.000000         Max UB: 1.000000       
Objective nonzeros   : Min   : 1.000000         Max   : 1.000000       
Linear constraints   :
  Nonzeros           : Min   : 1.000000         Max   : 1715.000       
  RHS nonzeros       : Min   : 1.000000         Max   : 1.000000       
Tried aggregator 2 times.
MIP Presolve eliminated 206 rows and 1520 columns.
Aggregator did 15 substitutions.
Reduced MIP has 29 rows, 211 columns, and 435 nonzeros.
Reduced MIP has 210 binaries, 1 generals, 0 SOSs, and 0 indicators.
Presolve time = 0.01 sec. (10.42 ticks)
Found incumbent of value 16457.000000 after 0.01 sec. (14.12 ticks)
Probing time = 0.00 sec. (0.26 ticks)
Tried aggregator 1 time.
Reduced MIP has 29 rows, 211 columns, and 435 nonzeros.
Reduced MIP has 210 binaries, 1 generals, 0 SOSs, and 0 indicators.
Presolve time = 0.00 sec. (0.36 ticks)
Probing time = 0.00 sec. (0.26 ticks)
Clique table members: 14.
MIP emphasis: balance optimality and feasibility.
MIP search method: dynamic search.
Parallel mode: none, using 1 thread.
Root relaxation solution time = 0.00 sec. (0.22 ticks)

        Nodes                                         Cuts/
   Node  Left     Objective  IInf  Best Integer    Best Bound    ItCnt     Gap

*     0+    0                        16457.0000     4590.0000            72.11%
      0     0     4590.0000    12    16457.0000     4590.0000       31   72.11%
*     0+    0                         4590.0000     4590.0000             0.00%
      0     0        cutoff           4590.0000     4590.0000       31    0.00%
Elapsed time = 0.01 sec. (15.59 ticks, tree = 0.01 MB, solutions = 2)

Root node processing (before b&c):
  Real time             =    0.01 sec. (15.65 ticks)
Sequential b&c:
  Real time             =    0.00 sec. (0.00 ticks)
                          ------------
Total (root+branch&cut) =    0.01 sec. (15.65 ticks)

Solution pool: 2 solutions saved.

MIP - Integer optimal solution:  Objective =  4.5900000000e+03
Solution time =    0.01 sec.  Iterations = 31  Nodes = 0
Deterministic time = 15.66 ticks  (1150.92 ticks/sec)


Incumbent solution written to file '/tmp/tmpJLmf1d.cplex.sol'.

Log started (V12.6.3.0) Fri Apr 20 17:53:30 2018

New value for default parallel thread count: 1

Problem '/tmp/tmpME7v_s.pyomo.lp' read.
Read time = 0.03 sec. (2.12 ticks)

Problem name         : /tmp/tmpME7v_s.pyomo.lp
Objective sense      : Minimize
Variables            :    1746  [Nneg: 1,  Binary: 1728,  General Integer: 17]
Objective nonzeros   :       1
Linear constraints   :     250  [Less: 124,  Equal: 126]
  Nonzeros           :  154177
  RHS nonzeros       :     109

Variables            : Min LB: 0.000000         Max UB: 1.000000       
Objective nonzeros   : Min   : 1.000000         Max   : 1.000000       
Linear constraints   :
  Nonzeros           : Min   : 1.000000         Max   : 1715.000       
  RHS nonzeros       : Min   : 1.000000         Max   : 1.000000       
Tried aggregator 2 times.
MIP Presolve eliminated 206 rows and 1520 columns.
Aggregator did 15 substitutions.
Reduced MIP has 29 rows, 211 columns, and 435 nonzeros.
Reduced MIP has 210 binaries, 1 generals, 0 SOSs, and 0 indicators.
Presolve time = 0.01 sec. (10.42 ticks)
Found incumbent of value 16457.000000 after 0.01 sec. (14.12 ticks)
Probing time = 0.00 sec. (0.26 ticks)
Tried aggregator 1 time.
Reduced MIP has 29 rows, 211 columns, and 435 nonzeros.
Reduced MIP has 210 binaries, 1 generals, 0 SOSs, and 0 indicators.
Presolve time = 0.00 sec. (0.36 ticks)
Probing time = 0.00 sec. (0.26 ticks)
Clique table members: 14.
MIP emphasis: balance optimality and feasibility.
MIP search method: dynamic search.
Parallel mode: none, using 1 thread.
Root relaxation solution time = 0.00 sec. (0.22 ticks)

        Nodes                                         Cuts/
   Node  Left     Objective  IInf  Best Integer    Best Bound    ItCnt     Gap

*     0+    0                        16457.0000     4590.0000            72.11%
      0     0     4590.0000    12    16457.0000     4590.0000       31   72.11%
*     0+    0                         4590.0000     4590.0000             0.00%
      0     0        cutoff           4590.0000     4590.0000       31    0.00%
Elapsed time = 0.01 sec. (15.59 ticks, tree = 0.01 MB, solutions = 2)

Root node processing (before b&c):
  Real time             =    0.01 sec. (15.65 ticks)
Sequential b&c:
  Real time             =    0.00 sec. (0.00 ticks)
                          ------------
Total (root+branch&cut) =    0.01 sec. (15.65 ticks)

Solution pool: 2 solutions saved.

MIP - Integer optimal solution:  Objective =  4.5900000000e+03
Solution time =    0.01 sec.  Iterations = 31  Nodes = 0
Deterministic time = 15.66 ticks  (1135.05 ticks/sec)


Incumbent solution written to file '/tmp/tmp4NlO31.cplex.sol'.
